2 10
383 433 
0 23 30 55 48 56 7 1
1 51 58 90 93 43 74 2
2 32 36 17 7 48 17 1
3 93 89 52 44 30 74 2
4 80 82 34 33 81 2 1
5 15 16 62 62 40 2 1
6 15 11 36 38 59 38 1
7 60 58 98 96 1 30 1
8 74 71 30 38 47 42 1
9 30 28 73 83 47 52 1
